(set-info :smt-lib-version 2.6)
(set-logic QF_UFNIA)
(set-info :source |
Generated by: Geoff Sutcliffe
Generated on: 2026-03-11
Generator: TPTPWorld
Application: Benchmarking automated theorem provers
Time limit: 120.0

These benchmarks are translations from the TPTP Library (Thousands of
Problems for Theorem Provers), see http://www.cs.miami.edu/~tptp/

The TPTP is maintained by Geoff Sutcliffe, and he contributed this
selection of benchmarks to SMT-LIB.  They were exported from the
v9.2.1 realease of TPTP.
|)
(set-info :category "industrial")
(set-info :status "unknown")
; SZS status Success
(declare-sort $$unsorted 0)
(declare-fun tptp.n () Int)
(declare-fun tptp.x6 () Int)
(declare-fun tptp.x5 () Int)
(declare-fun tptp.x4 () Int)
(declare-fun tptp.x3 () Int)
(declare-fun tptp.x2 () Int)
(declare-fun tptp.x1 () Int)
(assert (= tptp.n 1000))
(assert (= (+ (+ (+ (+ (+ (* 1 tptp.x6) (* tptp.n tptp.x5)) (* tptp.n tptp.x4)) (* tptp.n tptp.x3)) (* tptp.n tptp.x2)) (* tptp.n tptp.x1)) 0))
(assert (= (- (- (- (- (- (* tptp.n tptp.x6) tptp.x5) tptp.x4) tptp.x3) tptp.x2) tptp.x1) 0))
(assert (= (- (- (- (- (+ (* tptp.n tptp.x6) (* 1 tptp.x5)) tptp.x4) tptp.x3) tptp.x2) tptp.x1) 0))
(assert (= (+ (+ (+ (+ (+ (* tptp.n tptp.x6) (* 0 tptp.x5)) (* 1 tptp.x4)) (* 1 tptp.x3)) (* 1 tptp.x2)) (* 1 tptp.x1)) 0))
(assert (= (+ (+ (+ (- (+ (* tptp.n tptp.x6) (* 0 tptp.x5)) tptp.x4) (* 1 tptp.x3)) (* 1 tptp.x2)) (* 1 tptp.x1)) 0))
(assert (= (- (- (- (+ (+ (* tptp.n tptp.x6) (* 0 tptp.x5)) (* 0 tptp.x4)) tptp.x3) tptp.x2) tptp.x1) 0))
(assert (= (- (- (+ (+ (+ (* tptp.n tptp.x6) (* 0 tptp.x5)) (* 0 tptp.x4)) (* 1 tptp.x3)) tptp.x2) tptp.x1) 0))
(assert (= (+ (+ (+ (+ (+ (* tptp.n tptp.x6) (* 0 tptp.x5)) (* 0 tptp.x4)) (* 0 tptp.x3)) (* 1 tptp.x2)) (* 1 tptp.x1)) 0))
(assert (= (+ (- (+ (+ (+ (* tptp.n tptp.x6) (* 0 tptp.x5)) (* 0 tptp.x4)) (* 0 tptp.x3)) tptp.x2) (* 1 tptp.x1)) 0))
(assert (= (- (+ (+ (+ (+ (* tptp.n tptp.x6) (* 0 tptp.x5)) (* 0 tptp.x4)) (* 0 tptp.x3)) (* 0 tptp.x2)) tptp.x1) 0))
(assert (not (and (= tptp.x6 0) (= tptp.x5 0) (= tptp.x4 0) (= tptp.x3 0) (= tptp.x2 0) (= tptp.x1 0))))
(check-sat)
